c colouring generated by benchmark framework
p edge 196 4186
v 1 3
v 2 5
v 3 11
v 4 12
v 5 15
v 6 0
v 7 21
v 8 10
v 9 7
v 10 17
v 11 19
v 12 14
v 13 18
v 14 4
v 15 14
v 16 16
v 17 2
v 18 10
v 19 19
v 20 18
v 21 15
v 22 20
v 23 11
v 24 0
v 25 5
v 26 8
v 27 1
v 28 13
v 29 5
v 30 17
v 31 20
v 32 3
v 33 2
v 34 8
v 35 10
v 36 19
v 37 4
v 38 21
v 39 9
v 40 11
v 41 12
v 42 0
v 43 19
v 44 4
v 45 18
v 46 17
v 47 12
v 48 14
v 49 0
v 50 3
v 51 10
v 52 13
v 53 8
v 54 21
v 55 15
v 56 1
v 57 8
v 58 13
v 59 10
v 60 0
v 61 21
v 62 9
v 63 1
v 64 11
v 65 6
v 66 16
v 67 3
v 68 12
v 69 4
v 70 20
v 71 10
v 72 19
v 73 14
v 74 9
v 75 8
v 76 6
v 77 18
v 78 15
v 79 2
v 80 7
v 81 1
v 82 16
v 83 0
v 84 5
v 85 0
v 86 20
v 87 1
v 88 16
v 89 13
v 90 7
v 91 4
v 92 6
v 93 9
v 94 18
v 95 12
v 96 2
v 97 8
v 98 15
v 99 7
v 100 6
v 101 4
v 102 2
v 103 0
v 104 12
v 105 19
v 106 18
v 107 17
v 108 20
v 109 21
v 110 9
v 111 3
v 112 10
v 113 17
v 114 18
v 115 12
v 116 15
v 117 7
v 118 20
v 119 6
v 120 9
v 121 14
v 122 8
v 123 13
v 124 4
v 125 5
v 126 21
v 127 1
v 128 15
v 129 17
v 130 11
v 131 18
v 132 4
v 133 3
v 134 21
v 135 5
v 136 2
v 137 0
v 138 19
v 139 7
v 140 16
v 141 11
v 142 2
v 143 16
v 144 5
v 145 20
v 146 19
v 147 9
v 148 1
v 149 15
v 150 6
v 151 7
v 152 10
v 153 17
v 154 3
v 155 16
v 156 10
v 157 7
v 158 19
v 159 4
v 160 2
v 161 17
v 162 12
v 163 21
v 164 11
v 165 20
v 166 5
v 167 13
v 168 18
v 169 2
v 170 21
v 171 15
v 172 20
v 173 10
v 174 13
v 175 16
v 176 5
v 177 18
v 178 12
v 179 14
v 180 1
v 181 9
v 182 7
v 183 15
v 184 14
v 185 5
v 186 18
v 187 3
v 188 21
v 189 12
v 190 17
v 191 16
v 192 10
v 193 6
v 194 0
v 195 2
v 196 19
